
******************************************************************************
This program contains Ipopt, a library for large-scale nonlinear optimization.
 Ipopt is released as open source code under the Eclipse Public License (EPL).
         For more information visit http://projects.coin-or.org/Ipopt

This version of Ipopt was compiled from source code available at
    https://github.com/IDAES/Ipopt as part of the Institute for the Design of
    Advanced Energy Systems Process Systems Engineering Framework (IDAES PSE
    Framework) Copyright (c) 2018-2019. See https://github.com/IDAES/idaes-pse.

This version of Ipopt was compiled using HSL, a collection of Fortran codes
    for large-scale scientific computation.  All technical papers, sales and
    publicity material resulting from use of the HSL codes within IPOPT must
    contain the following acknowledgement:
        HSL, a collection of Fortran codes for large-scale scientific
        computation. See http://www.hsl.rl.ac.uk.
******************************************************************************

This is Ipopt version 3.13.2, running with linear solver ma27.

Number of nonzeros in equality constraint Jacobian...:     1588
Number of nonzeros in inequality constraint Jacobian.:        0
Number of nonzeros in Lagrangian Hessian.............:     2432

Total number of variables............................:      576
                     variables with only lower bounds:      128
                variables with lower and upper bounds:      384
                     variables with only upper bounds:        0
Total number of equality constraints.................:      570
Total number of inequality constraints...............:        0
        inequality constraints with only lower bounds:        0
   inequality constraints with lower and upper bounds:        0
        inequality constraints with only upper bounds:        0

iter    objective    inf_pr   inf_du lg(mu)  ||d||  lg(rg) alpha_du alpha_pr  ls
   0  0.0000000e+00 2.14e+00 4.53e-13  -1.0 0.00e+00    -  0.00e+00 0.00e+00   0
   1  5.9060512e+01 1.98e+00 6.83e+04  -1.0 1.38e+06    -  5.87e-02 7.46e-02h  1
   2  6.3886018e+01 1.95e+00 1.92e+05  -1.0 2.41e+06    -  5.14e-02 1.67e-02h  1
   3  1.0693770e+02 1.94e+00 1.04e+05  -1.0 2.44e+07    -  6.44e-03 3.15e-03h  4
   4  1.2346357e+02 1.94e+00 1.03e+05  -1.0 1.03e+07    -  2.22e-02 1.79e-03h  1
   5  2.0530616e+02 1.93e+00 1.11e+05  -1.0 1.05e+07    -  2.37e-02 6.46e-03h  6
   6  2.1176600e+02 1.92e+00 1.23e+05  -1.0 1.03e+07  -4.0 2.61e-01 4.46e-04h  1
   7  2.1692609e+02 1.92e+00 1.25e+05  -1.0 1.02e+07  -4.5 5.30e-02 3.60e-04h  9
   8  2.2243456e+02 1.92e+00 1.33e+05  -1.0 1.02e+07  -4.1 2.06e-01 3.98e-04h  9
   9  6.3260144e+03 1.71e+00 2.80e+08  -1.0 1.02e+07  -4.5 3.73e-02 1.11e-01h  3
iter    objective    inf_pr   inf_du lg(mu)  ||d||  lg(rg) alpha_du alpha_pr  ls
  10  6.5031394e+03 1.71e+00 2.64e+08  -1.0 3.07e+07  -4.1 5.37e-02 3.40e-03h  4
  11  1.0202683e+04 1.48e+00 3.27e+08  -1.0 2.19e+06  -3.7 2.66e-01 1.32e-01h  1
  12  1.0482997e+04 1.45e+00 3.22e+08  -1.0 1.24e+06  -3.3 2.27e-01 1.97e-02h  4
  13  1.0488068e+04 1.45e+00 3.22e+08  -1.0 1.25e+06  -2.8 4.44e-02 3.87e-04h  8
  14  1.0488920e+04 1.45e+00 3.22e+08  -1.0 1.25e+06  -3.3 1.44e-02 6.48e-05h  9
  15  1.0491508e+04 1.45e+00 3.22e+08  -1.0 1.25e+06  -2.9 2.77e-02 1.98e-04h  8
  16  1.0496726e+04 1.45e+00 3.22e+08  -1.0 1.25e+06  -3.4 4.29e-02 3.97e-04h  8
  17  1.0500091e+04 1.45e+00 3.22e+08  -1.0 1.26e+06  -2.9 3.55e-02 2.57e-04h  8
  18  1.0501075e+04 1.45e+00 3.22e+08  -1.0 1.43e+06  -3.4 1.76e-02 7.31e-05h  9
  19  1.0503882e+04 1.45e+00 3.22e+08  -1.0 1.30e+06  -3.0 2.76e-02 2.10e-04h  8
iter    objective    inf_pr   inf_du lg(mu)  ||d||  lg(rg) alpha_du alpha_pr  ls
  20  1.0517099e+04 1.45e+00 3.22e+08  -1.0 1.62e+06  -3.5 6.98e-02 9.76e-04h  7
  21  1.0565446e+04 1.45e+00 3.20e+08  -1.0 1.31e+06  -3.0 1.63e-01 3.62e-03h  6
  22  1.7002016e+04 9.25e+01 3.18e+09  -1.0 2.39e+06  -3.5 4.56e-01 2.66e-01w  1
  23  1.6259491e+04 8.11e+01 5.17e+09  -1.0 8.84e+05  -1.3 7.19e-02 1.23e-01w  1
  24  1.6376137e+04 1.68e+02 3.42e+12  -1.0 4.89e+05  -0.8 1.86e-01 9.90e-01w  1
  25  1.0983894e+04 1.40e+00 3.11e+08  -1.0 5.27e+06  -0.4 4.56e-01 3.33e-02h  3
  26  1.1030871e+04 1.39e+00 3.20e+08  -1.0 1.30e+06  -0.9 3.38e-01 6.12e-03h  1
  27  1.1075515e+04 1.38e+00 3.49e+08  -1.0 1.35e+06  -1.4 2.66e-01 6.72e-03h  6
  28  1.1082802e+04 1.38e+00 3.49e+08  -1.0 1.55e+06  -1.9 1.17e-01 1.59e-03h  7
  29  1.1084517e+04 1.38e+00 3.49e+08  -1.0 1.51e+06  -2.3 3.20e-02 2.70e-04h  8
iter    objective    inf_pr   inf_du lg(mu)  ||d||  lg(rg) alpha_du alpha_pr  ls
  30  1.1085907e+04 1.38e+00 3.49e+08  -1.0 1.09e+06  -1.9 2.06e-02 1.39e-04h  8
  31  1.1115994e+04 1.37e+00 3.48e+08  -1.0 9.96e+05  -2.4 1.24e-01 2.12e-03h  7
  32  1.1212243e+04 1.36e+00 3.79e+08  -1.0 1.95e+06  -2.0 6.41e-01 1.12e-02h  5
  33  1.1133075e+04 1.35e+00 4.12e+08  -1.0 4.36e+06  -2.4 1.11e-01 7.63e-03f  5
  34  1.1135886e+04 1.35e+00 4.12e+08  -1.0 1.48e+06  -2.0 3.62e-01 2.39e-03h  8
  35  1.1141913e+04 1.34e+00 4.12e+08  -1.0 1.18e+06  -1.6 5.88e-01 1.38e-03h 10
  36  1.1144742e+04 1.34e+00 4.12e+08  -1.0 1.12e+06  -1.2 6.73e-01 6.29e-04h 11
  37  1.1761145e+04 1.32e+01 4.36e+11  -1.0 1.20e+06   0.2 6.33e-01 1.43e-01w  1
  38  1.2556266e+04 2.15e+02 1.99e+14  -1.0 4.16e+05   1.5 1.50e-01 9.22e-01w  1
MA27BD returned iflag=-4 and requires more memory.
 Increase liw from 28315 to 56630 and la from 31560 to 67102 and factorize again.
  39  1.0904731e+04 2.09e+03 1.29e+15  -1.0 5.88e+07   1.9 2.68e-06 9.66e-03w  1
iter    objective    inf_pr   inf_du lg(mu)  ||d||  lg(rg) alpha_du alpha_pr  ls
  40  1.1145187e+04 1.34e+00 5.77e+08  -1.0 1.67e+06   3.3 6.33e-01 1.40e-04h 10
  41  1.1149745e+04 1.34e+00 3.96e+11  -1.0 1.05e+06   2.8 6.21e-01 8.49e-04h  1
  42  1.1542627e+04 1.25e+00 7.43e+12  -1.0 1.05e+06   2.3 5.29e-01 6.66e-02h  4
  43  1.1321509e+04 1.25e+00 7.57e+12  -1.0 7.65e+06   1.8 1.27e-02 1.95e-03f  5
  44  1.0499284e+04 5.32e+00 3.03e+13  -1.0 4.63e+05   2.3 3.04e-01 1.92e-01f  3
  45  1.0486444e+04 4.01e+00 1.67e+13  -1.0 1.23e+05   2.7 7.12e-01 2.47e-01f  3
  46  1.0460372e+04 3.02e+00 1.21e+13  -1.0 1.09e+05   2.2 7.42e-01 2.47e-01f  3
  47  1.0474133e+04 2.93e+00 1.17e+13  -1.0 2.74e+05   1.7 5.32e-01 2.75e-02h  4
  48  1.0476437e+04 2.85e+00 1.14e+13  -1.0 6.49e+04   2.2 8.59e-01 2.66e-02h  5
  49  1.0478088e+04 2.85e+00 1.14e+13  -1.0 2.60e+05   1.7 5.26e-01 2.73e-03h  7
iter    objective    inf_pr   inf_du lg(mu)  ||d||  lg(rg) alpha_du alpha_pr  ls
  50  1.0478391e+04 2.84e+00 1.13e+13  -1.0 6.19e+04   2.1 9.15e-01 2.98e-03f  8
  51  1.0478651e+04 2.84e+00 1.13e+13  -1.0 3.29e+05   1.6 3.59e-01 2.90e-04h 10
  52  1.0528580e+04 1.35e+02 7.04e+12  -1.0 6.81e+04   2.0 1.00e+00 3.46e-01w  1
  53  1.0652876e+04 7.05e+01 4.46e+12  -1.0 4.26e+04   1.6 9.33e-01 4.14e-01w  1
  54  1.0502299e+04 4.41e+01 4.45e+12  -1.0 8.19e+04   1.1 3.61e-04 9.90e-01w  1
  55  1.0478668e+04 2.84e+00 1.13e+13  -1.0 2.98e+04   0.6 1.00e+00 1.69e-04f 11
  56  1.0478664e+04 2.84e+00 1.13e+13  -1.0 8.64e+04   2.8 9.66e-01 1.66e-05h 15
  57r 1.0478664e+04 2.84e+00 1.00e+03   0.5 0.00e+00   5.1 0.00e+00 2.79e-07R 14
  58r 1.0478664e+04 4.16e-01 1.10e+03   0.5 9.09e+03    -  9.86e-03 2.75e-03f  1
  59  1.0500667e+04 1.04e+01 1.77e+03  -1.0 9.10e+04    -  7.73e-01 1.24e-01f  4
iter    objective    inf_pr   inf_du lg(mu)  ||d||  lg(rg) alpha_du alpha_pr  ls
  60  1.0370830e+04 9.33e+00 1.45e+03  -1.0 8.23e+04    -  7.68e-01 2.47e-01f  3
  61  1.0368022e+04 9.32e+00 1.40e+03  -1.0 2.24e+05    -  7.96e-01 1.15e-03f 10
  62  1.0368095e+04 9.32e+00 1.15e+08  -1.0 2.16e+04   4.6 7.90e-01 7.98e-04h  1
  63r 1.0368095e+04 9.32e+00 1.00e+03   1.0 0.00e+00   4.1 0.00e+00 2.50e-07R  6
  64r 1.0368099e+04 1.34e+01 9.91e+02   1.0 8.63e+03    -  2.12e-02 3.43e-03f  1
  65r 1.0368101e+04 1.35e+01 1.00e+03   1.0 6.04e+02    -  5.23e-02 5.67e-03f  1
  66r 1.0368104e+04 1.33e+01 2.45e+03   1.0 6.25e+02    -  6.34e-02 3.85e-02f  1
  67r 1.0368104e+04 1.24e+01 8.55e+02   1.0 1.56e+01   0.0 2.55e-01 7.61e-02f  1
  68r 1.0368104e+04 9.37e+00 1.13e+03   1.0 2.82e+01  -0.5 3.96e-01 2.86e-01f  1
  69r 1.0368104e+04 1.62e+01 3.07e+03   1.0 4.57e+01  -1.0 7.63e-01 5.70e-01f  1
iter    objective    inf_pr   inf_du lg(mu)  ||d||  lg(rg) alpha_du alpha_pr  ls
  70r 1.0368178e+04 1.37e+01 2.69e+03   1.0 4.47e+01    -  2.70e-01 1.72e-01f  1
  71r 1.0368280e+04 1.92e+00 1.25e+03   1.0 4.25e+01    -  4.92e-01 5.93e-01f  1
  72  7.6573013e+03 1.32e+01 5.66e+02  -1.0 1.20e+06    -  6.39e-01 2.18e-01f  3
  73  6.8635702e+03 1.21e+01 5.33e+02  -1.0 9.97e+05    -  6.30e-01 8.06e-02f  4
  74  6.5643766e+03 1.17e+01 5.30e+02  -1.0 9.55e+05    -  6.73e-01 3.30e-02f  5
  75  6.4231672e+03 1.15e+01 5.39e+02  -1.0 9.59e+05    -  7.50e-01 1.59e-02f  6
  76  6.3478747e+03 1.14e+01 5.54e+02  -1.0 9.76e+05    -  8.78e-01 8.51e-03f  7
  77  3.3767586e+03 2.27e+02 1.08e+03  -1.0 1.00e+06    -  9.90e-01 3.96e-01f  1
  78  2.7895833e+03 1.50e+02 7.24e+02  -1.0 4.39e+05    -  9.93e-01 3.04e-01f  1
  79  2.6107422e+03 7.14e+00 4.65e+03  -1.0 1.99e+05    -  2.05e-01 9.90e-01f  1
iter    objective    inf_pr   inf_du lg(mu)  ||d||  lg(rg) alpha_du alpha_pr  ls
  80  2.6162753e+03 1.26e+01 1.08e+04  -1.0 1.40e+05    -  7.54e-01 4.17e-01h  1
  81  2.7783958e+03 6.74e+00 2.37e+03  -1.0 9.14e+04    -  8.79e-01 8.87e-01h  1
  82  2.7724465e+03 6.65e+00 1.17e+05  -1.0 1.03e+05    -  5.11e-01 1.24e-01f  4
  83  2.7253099e+03 6.40e+00 1.38e+05  -1.0 2.47e+05    -  1.14e-01 3.73e-02F  1
  84  2.7253012e+03 6.40e+00 6.85e+09  -1.0 4.04e+04   3.6 2.34e-07 4.57e-04f  4
  85  2.7253054e+03 6.40e+00 5.33e+09  -1.0 3.91e+04   3.2 1.16e-04 1.16e-04s 13
  86  2.7253206e+03 6.39e+00 2.65e+09  -1.0 3.80e+04   2.7 4.38e-04 4.38e-04s 13
  87  2.7253230e+03 6.38e+00 2.26e+09  -1.0 3.93e+04   2.2 1.46e-03 1.46e-03s 13
  88r 2.7253230e+03 6.38e+00 1.00e+03   0.8 0.00e+00   1.7 0.00e+00 0.00e+00R  1
  89r 2.7253454e+03 3.78e+00 2.50e+03   0.8 1.09e+04    -  3.09e-06 1.43e-03f  1
iter    objective    inf_pr   inf_du lg(mu)  ||d||  lg(rg) alpha_du alpha_pr  ls
  90  2.7436611e+03 3.27e+00 3.49e+03  -1.0 5.32e+04    -  4.08e-01 1.54e-01h  1
  91  2.8706669e+03 1.55e+00 5.00e+03  -1.0 4.62e+04    -  5.91e-01 9.90e-01h  1
  92  2.8666211e+03 7.61e-01 1.89e+05  -1.0 9.19e+02    -  8.74e-01 9.90e-01h  1
  93  2.8647158e+03 6.00e-01 5.54e+07  -1.0 4.76e+03    -  8.36e-01 4.95e-01f  2
  94  2.8503155e+03 3.27e-01 8.38e+07  -1.0 3.84e+04    -  1.48e-01 4.95e-01f  2
  95  2.8443295e+03 3.56e+00 6.05e+07  -1.0 1.01e+04    -  3.10e-01 9.66e-02H  1
  96  2.6175938e+03 1.19e+01 3.98e+08  -1.0 2.48e+04    -  4.26e-01 9.90e-01F  1
  97  2.6169837e+03 1.13e+01 2.44e+09  -1.0 9.89e+04   1.3 1.63e-02 4.54e-02h  1
  98  2.6169805e+03 1.13e+01 2.66e+09  -1.0 9.47e+04   0.8 6.97e-02 6.84e-04h  1
  99  2.6169815e+03 1.13e+01 5.49e+10  -1.0 9.59e+04   0.3 7.05e-01 7.19e-05h  1
iter    objective    inf_pr   inf_du lg(mu)  ||d||  lg(rg) alpha_du alpha_pr  ls
 100  2.6193127e+03 8.93e+00 2.62e+10  -1.0 9.56e+04  -0.2 2.95e-02 2.39e-01h  2
 101  2.6249382e+03 3.16e+00 6.94e+10  -1.0 6.86e+04  -0.6 2.74e-01 9.90e-01h  1
 102  2.6049523e+03 9.89e-01 7.52e+12  -1.0 4.82e+03  -1.1 2.17e-01 9.90e-01f  1
In iteration 102, 32 Slacks too small, adjusting variable bounds
 103  2.6050198e+03 2.86e-01 7.32e+14  -1.0 5.27e+01  -1.6 2.38e-01 9.90e-01f  1
 104  2.6050208e+03 6.89e-02 5.52e+13  -1.0 1.34e+01  -2.1 7.61e-01 1.00e+00f  1
 105  2.6050184e+03 1.10e-02 3.35e+13  -1.0 6.02e+00  -2.6 3.93e-01 1.00e+00f  1
 106  2.6050035e+03 5.50e-04 8.14e+12  -1.0 1.87e+00  -3.0 7.57e-01 1.00e+00f  1
 107  2.6049602e+03 1.82e-06 4.92e+12  -1.0 5.62e+00  -3.5 3.96e-01 1.00e+00f  1
 108  2.6048125e+03 1.55e-07 1.15e+12  -1.0 1.76e+01  -4.0 7.66e-01 1.00e+00f  1
 109  2.6043889e+03 9.15e-07 6.82e+11  -1.0 5.20e+01  -4.5 4.08e-01 1.00e+00f  1
iter    objective    inf_pr   inf_du lg(mu)  ||d||  lg(rg) alpha_du alpha_pr  ls
 110  2.6029947e+03 1.76e-05 1.29e+11  -1.0 1.61e+02  -4.9 8.11e-01 1.00e+00f  1
 111  2.5988628e+03 2.14e+00 6.87e+10  -1.0 4.83e+02  -5.4 4.67e-01 1.00e+00f  1
 112  2.5856675e+03 6.34e-01 5.67e+08  -1.0 1.48e+03  -5.9 9.92e-01 1.00e+00f  1
 113  2.5446961e+03 1.71e-01 1.23e+00  -1.7 4.48e+03  -6.4 1.00e+00 1.00e+00f  1
 114  2.4248464e+03 3.35e-02 5.22e+00  -2.5 1.31e+04  -6.8 1.00e+00 1.00e+00f  1
 115  2.0695217e+03 4.08e-02 1.12e+02  -2.5 4.06e+04  -7.3 1.89e-01 1.00e+00f  1
 116  1.8903601e+03 3.78e-02 3.49e+02  -2.5 2.85e+04  -6.9 1.00e+00 1.00e+00f  1
 117  1.1829508e+03 7.01e-01 2.51e+02  -2.5 6.03e+05    -  2.49e-02 2.53e-01f  1
 118  1.1118634e+03 2.59e+00 9.25e+03  -2.5 2.72e+04  -6.5 1.00e+00 1.00e+00f  1
 119  9.9809329e+02 1.78e-01 3.01e+03  -2.5 3.06e+04  -6.9 3.10e-01 1.00e+00f  1
iter    objective    inf_pr   inf_du lg(mu)  ||d||  lg(rg) alpha_du alpha_pr  ls
 120  8.7194298e+02 4.93e-02 2.85e+03  -2.5 5.19e+04  -7.4 1.00e+00 1.00e+00f  1
 121  4.9625325e+02 1.39e-02 4.61e+02  -2.5 1.15e+05  -7.9 1.00e+00 1.00e+00f  1
 122  4.6287557e+02 1.68e-02 4.20e+10  -3.8 1.93e+05  -8.4 7.96e-01 8.53e-02f  1
 123  4.6082261e+02 1.67e-02 5.38e+10  -3.8 2.09e+05    -  1.00e+00 4.33e-03f  1
 124  2.6181005e+02 4.09e-01 5.36e+01  -3.8 2.07e+05    -  1.00e+00 1.00e+00f  1
 125  2.6337878e+02 3.03e-01 3.89e+01  -3.8 5.09e+04    -  9.70e-01 2.79e-01h  1
 126  2.7695602e+02 5.50e-02 3.92e+00  -3.8 4.61e+04    -  1.00e+00 1.00e+00h  1
 127  2.8158634e+02 3.45e-03 1.57e-01  -3.8 1.46e+04    -  1.00e+00 1.00e+00h  1
 128  2.8192321e+02 5.49e-06 8.44e-05  -3.8 6.15e+02    -  1.00e+00 1.00e+00h  1
 129  2.8192361e+02 5.43e-11 2.17e-07  -8.6 2.74e+00    -  1.00e+00 1.00e+00h  1
iter    objective    inf_pr   inf_du lg(mu)  ||d||  lg(rg) alpha_du alpha_pr  ls
 130  2.8192361e+02 2.38e-12 5.02e-11  -9.0 2.22e-04    -  1.00e+00 1.00e+00h  1

Number of Iterations....: 130

                                   (scaled)                 (unscaled)
Objective...............:   2.8192361209951144e+02    2.8192361209951144e+02
Dual infeasibility......:   5.0158289374422941e-11    5.0158289374422941e-11
Constraint violation....:   2.3820945216357359e-12    2.3820945216357359e-12
Complementarity.........:   9.0909098567493167e-10    9.0909098567493167e-10
Overall NLP error.......:   1.9469151396497113e-10    9.0909098567493167e-10


Number of objective function evaluations             = 528
Number of objective gradient evaluations             = 124
Number of equality constraint evaluations            = 528
Number of inequality constraint evaluations          = 0
Number of equality constraint Jacobian evaluations   = 134
Number of inequality constraint Jacobian evaluations = 0
Number of Lagrangian Hessian evaluations             = 130
Total CPU secs in IPOPT (w/o function evaluations)   =      0.570
Total CPU secs in NLP function evaluations           =      6.489

EXIT: Optimal Solution Found.
